100
2 93
14 55
16 44
19 50
26 10
22 13
1 44
13 59
20 7
28 18
21 15
17 58
19 92
27 7
29 12
7 6
1 24
8 43
23 59
19 79
25 51
6 13
4 76
5 31
9 34
1 86
26 41
5 30
17 95
19 4
0 29
25 69
2 71
3 25
14 58
29 4
18 49
28 57
9 42
9 65
21 90
3 82
13 47
24 20
25 2
23 54
3 87
11 88
13 87
15 94
28 70
21 7
4 68
23 49
7 5
8 44
26 18
8 31
4 91
16 64
0 81
8 81
20 45
23 31
25 35
7 30
7 76
24 29
10 54
9 7
11 97
8 7
21 30
23 86
2 47
8 71
3 73
28 48
20 75
2 51
22 57
23 20
1 71
25 78
27 31
21 85
14 41
23 49
7 87
14 48
10 89
12 14
23 25
20 33
24 95
12 14
24 18
0 86
16 87
21 15
